(declare-fun sym1 () Real)
(assert (> sym1 -0.5))
(assert (< sym1 0.5))
(declare-fun sym4 () Real)
(assert (> sym4 -0.5))
(assert (< sym4 0.5))
(declare-fun sym20 () Real)
(assert (> sym20 -0.5))
(assert (< sym20 0.5))
(declare-fun sym23 () Real)
(assert (> sym23 -0.5))
(assert (< sym23 0.5))
(declare-fun sym30 () Real)
(assert (> sym30 -0.5))
(assert (< sym30 0.5))
(declare-fun sym31 () Real)
(assert (> sym31 -0.5))
(assert (< sym31 0.5))
(declare-fun sym34 () Real)
(assert (> sym34 -0.5))
(assert (< sym34 0.5))
(declare-fun sym50 () Real)
(assert (> sym50 -0.5))
(assert (< sym50 0.5))
(declare-fun sym71 () Real)
(assert (> sym71 -0.5))
(assert (< sym71 0.5))
(declare-fun sym74 () Real)
(assert (> sym74 -0.5))
(assert (< sym74 0.5))
(declare-fun sym77 () Real)
(assert (> sym77 -0.5))
(assert (< sym77 0.5))
(declare-fun sym104 () Real)
(assert (> sym104 -0.5))
(assert (< sym104 0.5))
(declare-fun sym105 () Real)
(assert (> sym105 -0.5))
(assert (< sym105 0.5))

; input1 7
(declare-fun y1_0 () Real)
(assert (= y1_0 -62.328443060891054))
(declare-fun y1_1 () Real)
(assert (= y1_1 1.2617019375097498))
(declare-fun y1_2 () Real)
(assert (= y1_2 3.444914793147988))
(declare-fun y1_3 () Real)
(assert (= y1_3 -19.07816762729586))
(declare-fun y1_4 () Real)
(assert (= y1_4 -40.46993846101405))
(declare-fun y1_5 () Real)
(assert (= y1_5 -38.379742483138365))
(declare-fun y1_6 () Real)
(assert (= y1_6 -88.96493591031707))
(declare-fun y1_7 () Real)
(assert (= y1_7 ( +  ( +  ( +  ( +  ( +  ( +  ( +  ( +  ( +  ( +  ( +  ( +  ( +  ( +  ( +  ( +  ( +  ( +  ( +  ( +  ( +  ( +  ( +  ( +  ( +  ( +  ( +  ( +  ( +  ( +  ( +  ( +  ( +  ( +  ( +  ( +  ( +  ( +  ( +  ( +  ( +  ( +  ( +  ( +  ( +  ( +  ( +  ( +  ( +  ( +  ( +  ( +  ( +  ( +  ( +  ( +  ( +  ( +  ( +  ( +  ( +  ( +  ( +  ( +  ( +  ( +  ( +  ( +  ( +  ( +  ( +  ( +  ( +  ( +  ( +  ( +  ( +  ( +  ( +  ( +  ( +  ( +  ( +  ( +  ( +  ( +  ( +  ( +  ( +  ( +  ( +  ( +  ( +  ( +  ( +  ( +  ( +  ( +  ( +  ( +  ( +  ( +  ( +  ( +  ( +  ( +  ( +  ( +  ( +  ( +  ( +  ( +  ( +  ( +  ( +  ( +  ( +  ( +  ( +  ( +  ( +  ( +  ( +  ( +  ( +  ( +  ( +  ( *  ( +  sym1 0.08918830007314682) 67.03488583656777) -0.021709617227315903) -0.0) 0.0) ( *  ( +  sym4 0.13766807317733765) 10.671063786162861)) 2.0800813781636234) 0.02683635750938362) -0.0) -0.0) 0.0) 3.253394634193958) -0.0) -0.0) -0.0) -0.0030611408594053437) -0.0) 0.0) 3.23534152783127) -0.0) -0.0) ( *  ( +  sym20 0.23444165289402008) 27.095240789552307)) 0.144720423305341) -0.0) ( *  ( +  sym23 0.12008041888475418) 10.65269405593905)) 0.0) -0.0) -0.0) -0.0) -0.0) 2.770582987197988) ( *  ( +  sym30 0.09389308094978333) 35.295706868409155)) ( *  ( +  sym31 0.07572353631258011) 9.696459600305369)) 0.0) 1.3214831890259078) ( *  ( +  sym34 0.1298641413450241) 44.17495045879921)) 2.246411972132838) 2.277586185493477) -0.0) 0.0) -0.0) 0.40059704380250577) -0.0) -0.0) -0.0) -0.0) -0.0) -0.0) -0.0) 0.7172643830151864) -0.0) ( *  ( +  sym50 0.07448327541351318) 53.204419451703785)) -0.0) 0.0) 0.0) -0.0) -0.0) 0.0) -0.0) -0.0) -0.0) 1.326192142269355) -0.0) -0.0) -0.0) -0.0) 0.9372104802225597) -0.0) -0.0) 0.0) -0.0) 0.0) ( *  ( +  sym71 0.24905385076999664) 8.422479592587148)) -0.0) 0.8718950812014912) ( *  ( +  sym74 0.0813562199473381) 14.583714444820234)) -0.0) -0.0) ( *  ( +  sym77 0.17358028888702393) 48.647848854916234)) 0.0) 4.972527481894426) 0.0) -0.0) 0.0) -0.0) 0.0) -0.0) 2.6336472366485637) 0.0) -0.0) -0.0) 3.486180093460951) -0.0) -0.0) -0.0) -0.0) 0.0) 0.0) 0.0) 0.0) 7.454173000442101) 0.0) -0.0) -0.0) -0.0) ( *  ( +  sym104 0.09624259173870087) 43.347172448399114)) ( *  ( +  sym105 0.11992263793945312) 57.04778287394441)) -0.0) -0.3590730050997784) 0.0) 3.8000678740189153) -0.0) -0.0) 1.1496643956454247) -0.0) -0.0) 0.0) -0.0) -0.0) -0.0) -0.0) -0.0) 0.0) -0.0) 0.0) 0.0) 0.0) 0.0) -0.0)))
(declare-fun y1_8 () Real)
(assert (= y1_8 -44.546703275297716))
(declare-fun y1_9 () Real)
(assert (= y1_9 -25.054464853682838))

; input2 2
(declare-fun y2_0 () Real)
(assert (= y2_0 -55.60352491221104))
(declare-fun y2_1 () Real)
(assert (= y2_1 9.695790503237419))
(declare-fun y2_2 () Real)
(assert (= y2_2 14.47490068384231))
(declare-fun y2_3 () Real)
(assert (= y2_3 -19.698056584315786))
(declare-fun y2_4 () Real)
(assert (= y2_4 -32.58807021382285))
(declare-fun y2_5 () Real)
(assert (= y2_5 -21.65450410065777))
(declare-fun y2_6 () Real)
(assert (= y2_6 -27.130380553792516))
(declare-fun y2_7 () Real)
(assert (= y2_7 ( +  ( +  ( +  ( +  ( +  ( +  ( +  ( +  ( +  ( +  ( +  ( +  ( +  ( +  ( +  ( +  ( +  ( +  ( +  ( +  ( +  ( +  ( +  ( +  ( +  ( +  ( +  ( +  ( +  ( +  ( +  ( +  ( +  ( +  ( +  ( +  ( +  ( +  ( +  ( +  ( +  ( +  ( +  ( +  ( +  ( +  ( +  ( +  ( +  ( +  ( +  ( +  ( +  ( +  ( +  ( +  ( +  ( +  ( +  ( +  ( +  ( +  ( +  ( +  ( +  ( +  ( +  ( +  ( +  ( +  ( +  ( +  ( +  ( +  ( +  ( +  ( +  ( +  ( +  ( +  ( +  ( +  ( +  ( +  ( +  ( +  ( +  ( +  ( +  ( +  ( +  ( +  ( +  ( +  ( +  ( +  ( +  ( +  ( +  ( +  ( +  ( +  ( +  ( +  ( +  ( +  ( +  ( +  ( +  ( +  ( +  ( +  ( +  ( +  ( +  ( +  ( +  ( +  ( +  ( +  ( +  ( +  ( +  ( +  ( +  ( +  ( +  ( *  ( +  sym1 0.08918830007314682) 7.564879509652965) -0.021709617227315903) -0.04202318187886003) 0.0) ( *  ( +  sym4 0.13766807317733765) 48.878325522913265)) 0.0) 0.0) -0.0) -0.0) 0.0) 1.0915168406905067) -0.01749672037654785) -0.0) -0.0) -0.0038439043059119208) -0.0) 0.0) 0.0) -0.0) -0.32664455715301705) ( *  ( +  sym20 0.23444165289402008) 47.6566557173534)) 0.0) -0.006691915937190575) ( *  ( +  sym23 0.12008041888475418) 12.839525726084931)) 0.0) -0.0) -0.0) -0.0) -0.0) 0.0) ( *  ( +  sym30 0.09389308094978333) 47.96778119226473)) ( *  ( +  sym31 0.07572353631258011) 16.083023398026143)) 0.0) 0.0) ( *  ( +  sym34 0.1298641413450241) 12.158120371936295)) 0.0) 0.0) -0.0) 0.0) -0.0) 0.0) -0.0) -0.0) -0.0) -0.09066846456389686) -0.0) -0.0) -0.0) 0.0) -0.0) ( *  ( +  sym50 0.07448327541351318) 0.0)) -0.0) 0.0) 0.0) -0.0) -0.0) 0.0) -0.0) -0.0) -0.0) 0.0) -0.0) -0.0) -0.0) -0.6968283099744043) 0.6033300987763904) -0.7744046430808407) -0.0) 0.0) -0.4820781752435304) 0.0) ( *  ( +  sym71 0.24905385076999664) 59.52166579603608)) -0.0) 0.0) ( *  ( +  sym74 0.0813562199473381) 49.00128173188777)) -0.0) -2.125546986320987) ( *  ( +  sym77 0.17358028888702393) 18.89021165901878)) 0.0) 0.0) 1.5632904844736701) -0.0) 0.0) -0.9149494810094362) 0.1694400361181261) -0.7265335788632421) 0.014295525681575475) 1.0541393925727083) -0.0) -0.0) 0.0) -0.0) -0.0) -0.0) -0.0) 0.0) 0.0) 5.494303504743811) 1.834864119653221) 0.0) 0.0) -0.0) -0.0) -0.0) ( *  ( +  sym104 0.09624259173870087) 42.94234803976375)) ( *  ( +  sym105 0.11992263793945312) 38.35283403467235)) -0.0) -0.0) 0.0) 0.2005585060385937) -0.0) -0.14682588263334082) 0.0) -0.0) -0.8633585017827933) 0.0) -0.0) -0.0) -0.0) -0.2268114362098744) -0.0) 0.0) -0.0) 0.0) 0.007741790057997027) 0.0) 0.0) -0.0)))
(declare-fun y2_8 () Real)
(assert (= y2_8 -38.84981417324223))
(declare-fun y2_9 () Real)
(assert (= y2_9 -54.29127461679997))

;input3 1
(declare-fun y3_0 () Real)
(assert (= y3_0 -61.18102361785786))
(declare-fun y3_1 () Real)
(assert (= y3_1 29.072516244820754))
(declare-fun y3_2 () Real)
(assert (= y3_2 -7.263076511902838))
(declare-fun y3_3 () Real)
(assert (= y3_3 -31.49370222790368))
(declare-fun y3_4 () Real)
(assert (= y3_4 -17.553196533470764))
(declare-fun y3_5 () Real)
(assert (= y3_5 -23.913147909970625))
(declare-fun y3_6 () Real)
(assert (= y3_6 -32.089693900823946))
(declare-fun y3_7 () Real)
(assert (= y3_7 ( +  ( +  ( +  ( +  ( +  ( +  ( +  ( +  ( +  ( +  ( +  ( +  ( +  ( +  ( +  ( +  ( +  ( +  ( +  ( +  ( +  ( +  ( +  ( +  ( +  ( +  ( +  ( +  ( +  ( +  ( +  ( +  ( +  ( +  ( +  ( +  ( +  ( +  ( +  ( +  ( +  ( +  ( +  ( +  ( +  ( +  ( +  ( +  ( +  ( +  ( +  ( +  ( +  ( +  ( +  ( +  ( +  ( +  ( +  ( +  ( +  ( +  ( +  ( +  ( +  ( +  ( +  ( +  ( +  ( +  ( +  ( +  ( +  ( +  ( +  ( +  ( +  ( +  ( +  ( +  ( +  ( +  ( +  ( +  ( +  ( +  ( +  ( +  ( +  ( +  ( +  ( +  ( +  ( +  ( +  ( +  ( +  ( +  ( +  ( +  ( +  ( +  ( +  ( +  ( +  ( +  ( +  ( +  ( +  ( +  ( +  ( +  ( +  ( +  ( +  ( +  ( +  ( +  ( +  ( +  ( +  ( +  ( +  ( +  ( +  ( +  ( +  ( *  ( +  sym1 0.08918830007314682) 16.624006017509394) -0.021709617227315903) -0.0) 0.0) ( *  ( +  sym4 0.13766807317733765) 44.26607375821688)) 0.0) 0.06877051467156163) -0.0) -0.0) 0.0) 0.0) -0.0) -0.0) -0.0) -0.0) -0.0) 0.0) 1.8686966124812145) -0.0) -0.3575204195772047) ( *  ( +  sym20 0.23444165289402008) 40.53821634359141)) 0.5142639961146556) -0.0) ( *  ( +  sym23 0.12008041888475418) 30.596277436506767)) 0.0016582448594862113) -0.0) -0.0) -0.0) -0.0) 0.11366425729114558) ( *  ( +  sym30 0.09389308094978333) 19.56057782487522)) ( *  ( +  sym31 0.07572353631258011) 16.828174009519852)) 0.0) 0.05470106393436078) ( *  ( +  sym34 0.1298641413450241) 5.072718522967426)) 0.0) 0.0) -0.0) 0.0) -0.02930131183806937) 3.1157424805692933) -0.0) -0.0) -0.0) -0.024886866297167368) -0.0) -0.0) -0.0) 0.0) -0.0) ( *  ( +  sym50 0.07448327541351318) 5.797639389146175)) -0.0) 0.0) 0.0) -0.0) -0.0) 0.0) -0.0) -0.0) -0.0) 1.5241042981224937) -0.0) -0.0) -0.0) -0.0) 0.0) -0.0) -0.0) 0.05378023222312246) -0.0) 0.0) ( *  ( +  sym71 0.24905385076999664) 35.65995708596736)) -4.673075751494218) 0.0) ( *  ( +  sym74 0.0813562199473381) 50.833128799537825)) -0.0) -0.0) ( *  ( +  sym77 0.17358028888702393) 3.172952286543225)) 0.0) 0.0) 1.240606917314404) -0.0) 0.0) -0.31859020396285004) 0.03733424529851991) -0.0) 0.7111557321971557) 0.3652096281773594) -0.0) -0.0) 0.6954887070893353) -0.0) -0.0) -0.0) -0.0) 0.0) 2.602076045649722) 4.587129670139163) 0.0) 0.19129638705296642) 0.0) -0.0) -0.0) -0.0) ( *  ( +  sym104 0.09624259173870087) 23.40242281120591)) ( *  ( +  sym105 0.11992263793945312) 31.492271866646938)) -0.0) -0.0) 0.0) 0.2872170899869166) -0.0) -0.0) 0.0) -0.0) -0.0) 0.0) -0.10025636075048353) -0.0) -2.2478190305006818) -0.0) -0.0) 0.0) -0.0) 0.0) 0.0) 0.0) 0.0) -0.0)))
(declare-fun y3_8 () Real)
(assert (= y3_8 -32.52234748987234))
(declare-fun y3_9 () Real)
(assert (= y3_9 -41.894737661862834))

;input4 0
(declare-fun y4_0 () Real)
(assert (= y4_0 -5.520369360811622))
(declare-fun y4_1 () Real)
(assert (= y4_1 -3.538500247213203))
(declare-fun y4_2 () Real)
(assert (= y4_2 -6.15798911145178))
(declare-fun y4_3 () Real)
(assert (= y4_3 -32.80341619341402))
(declare-fun y4_4 () Real)
(assert (= y4_4 -25.111664836516425))
(declare-fun y4_5 () Real)
(assert (= y4_5 -17.41827287313121))
(declare-fun y4_6 () Real)
(assert (= y4_6 -22.99787187833988))
(declare-fun y4_7 () Real)
(assert (= y4_7 ( +  ( +  ( +  ( +  ( +  ( +  ( +  ( +  ( +  ( +  ( +  ( +  ( +  ( +  ( +  ( +  ( +  ( +  ( +  ( +  ( +  ( +  ( +  ( +  ( +  ( +  ( +  ( +  ( +  ( +  ( +  ( +  ( +  ( +  ( +  ( +  ( +  ( +  ( +  ( +  ( +  ( +  ( +  ( +  ( +  ( +  ( +  ( +  ( +  ( +  ( +  ( +  ( +  ( +  ( +  ( +  ( +  ( +  ( +  ( +  ( +  ( +  ( +  ( +  ( +  ( +  ( +  ( +  ( +  ( +  ( +  ( +  ( +  ( +  ( +  ( +  ( +  ( +  ( +  ( +  ( +  ( +  ( +  ( +  ( +  ( +  ( +  ( +  ( +  ( +  ( +  ( +  ( +  ( +  ( +  ( +  ( +  ( +  ( +  ( +  ( +  ( +  ( +  ( +  ( +  ( +  ( +  ( +  ( +  ( +  ( +  ( +  ( +  ( +  ( +  ( +  ( +  ( +  ( +  ( +  ( +  ( +  ( +  ( +  ( +  ( +  ( +  ( *  ( +  sym1 0.08918830007314682) 0.0) -0.021709617227315903) -2.3193049001200197) 0.0) ( *  ( +  sym4 0.13766807317733765) 11.252407038372624)) 0.4484877129358533) 0.0) -0.0) -0.0) 0.0) 0.5042862562556469) -0.05758657464667406) -0.0) -0.0) -0.007773605202313242) -0.0) 0.0) 0.0) -0.0) -0.0) ( *  ( +  sym20 0.23444165289402008) 11.544531399409841)) 0.0) -0.0) ( *  ( +  sym23 0.12008041888475418) 0.0)) 0.0) -0.0) -0.0) -0.0) -0.0) 0.0) ( *  ( +  sym30 0.09389308094978333) 61.63638543309006)) ( *  ( +  sym31 0.07572353631258011) 0.018762150673897082)) 0.0) 0.0) ( *  ( +  sym34 0.1298641413450241) 35.129125047243996)) 0.0) 0.9938491827209517) -1.2407494432438935) 0.0) -0.0) 0.0) -0.0) -0.0) -0.0) -0.0) -0.0) -0.0) -0.0) 0.0) -0.0) ( *  ( +  sym50 0.07448327541351318) 0.0)) -0.0) 0.5951605839672164) 0.0) -0.0) -0.0) 0.4674232704225373) -0.0) -0.01682510212891922) -0.0) 0.0) -1.3223135409875748) -0.0) -0.0) -0.0) 0.9108294326974282) -0.0) -0.0) 0.0) -0.0) 0.0) ( *  ( +  sym71 0.24905385076999664) 33.216081531675066)) -0.0) 0.5612255007279361) ( *  ( +  sym74 0.0813562199473381) 35.99251701490965)) -0.0) -0.0) ( *  ( +  sym77 0.17358028888702393) 22.516710554956283)) 0.0) 2.6254111829258484) 0.0) -0.0) 0.0) -0.0) 0.0) -0.0) 0.9893088265549563) 0.0) -0.0) -0.0) 0.0) -0.0) -0.0) -0.0) -0.0) 0.0) 0.0) 0.0) 1.2709339107781652) 4.555519489980603) 0.0) -0.0) -0.0) -0.0) ( *  ( +  sym104 0.09624259173870087) 39.95112950664774)) ( *  ( +  sym105 0.11992263793945312) 22.550119873777348)) -0.0) -0.0) 0.0) 1.0944041660315809) -0.0) -0.0) 1.583105116499614) -0.0) -0.0) 0.0) -0.0) -0.0) -0.0) -0.0) -0.0) 0.0) -0.0) 0.0) 0.15069596236660415) 0.0) 0.0) -0.0)))
(declare-fun y4_8 () Real)
(assert (= y4_8 -30.304375560394586))
(declare-fun y4_9 () Real)
(assert (= y4_9 -13.758112785816799))

;input5 4
(declare-fun y5_0 () Real)
(assert (= y5_0 -25.12240987506108))
(declare-fun y5_1 () Real)
(assert (= y5_1 -18.186303824446064))
(declare-fun y5_2 () Real)
(assert (= y5_2 -9.920431143139675))
(declare-fun y5_3 () Real)
(assert (= y5_3 -38.50413785384033))
(declare-fun y5_4 () Real)
(assert (= y5_4 10.864719062362255))
(declare-fun y5_5 () Real)
(assert (= y5_5 -18.291035130410318))
(declare-fun y5_6 () Real)
(assert (= y5_6 -31.96201479762225))
(declare-fun y5_7 () Real)
(assert (= y5_7 ( +  ( +  ( +  ( +  ( +  ( +  ( +  ( +  ( +  ( +  ( +  ( +  ( +  ( +  ( +  ( +  ( +  ( +  ( +  ( +  ( +  ( +  ( +  ( +  ( +  ( +  ( +  ( +  ( +  ( +  ( +  ( +  ( +  ( +  ( +  ( +  ( +  ( +  ( +  ( +  ( +  ( +  ( +  ( +  ( +  ( +  ( +  ( +  ( +  ( +  ( +  ( +  ( +  ( +  ( +  ( +  ( +  ( +  ( +  ( +  ( +  ( +  ( +  ( +  ( +  ( +  ( +  ( +  ( +  ( +  ( +  ( +  ( +  ( +  ( +  ( +  ( +  ( +  ( +  ( +  ( +  ( +  ( +  ( +  ( +  ( +  ( +  ( +  ( +  ( +  ( +  ( +  ( +  ( +  ( +  ( +  ( +  ( +  ( +  ( +  ( +  ( +  ( +  ( +  ( +  ( +  ( +  ( +  ( +  ( +  ( +  ( +  ( +  ( +  ( +  ( +  ( +  ( +  ( +  ( +  ( +  ( +  ( +  ( +  ( +  ( +  ( +  ( *  ( +  sym1 0.08918830007314682) 7.343224781371729) -0.4487424072341511) -0.0) 0.0) ( *  ( +  sym4 0.13766807317733765) 6.186000729633531)) 0.0) 0.046839884088537134) -0.0) -0.6607991849576978) 0.0) 0.0) -0.0) -0.0) -0.0) -0.0) -0.5127961836675594) 2.3060567294858476) 0.37809637304896226) -0.0) -0.0) ( *  ( +  sym20 0.23444165289402008) 11.095066313559059)) 0.10112575373673821) -0.0) ( *  ( +  sym23 0.12008041888475418) 0.0)) 0.0) -0.0) -0.0) -0.00703621823980558) -0.0) 0.28848819832641825) ( *  ( +  sym30 0.09389308094978333) 31.076071448828493)) ( *  ( +  sym31 0.07572353631258011) 0.9845776479048887)) 0.0) 0.0) ( *  ( +  sym34 0.1298641413450241) 37.12448527871684)) 0.0) 1.6509873071030456) -0.0) 0.0) -0.0) 0.0) -0.0) -0.0) -0.0) -0.0) -0.0) -0.0) -0.0) 0.9118700737275683) -0.0) ( *  ( +  sym50 0.07448327541351318) 2.6960033572019806)) -0.0) 0.02976315573607192) 0.0) -0.0) -0.34597664550518187) 0.6498350739737556) -0.0) -0.0) -0.0) 0.46162010300470474) -0.0) -0.0) -0.0) -0.07387502243746875) 1.987973738324141) -0.0) -1.1039378820719876) 0.0) -0.0) 0.0) ( *  ( +  sym71 0.24905385076999664) 33.033486382046526)) -0.0) 1.9164335261298344) ( *  ( +  sym74 0.0813562199473381) 3.5308483202528675)) -0.0) -0.0) ( *  ( +  sym77 0.17358028888702393) 12.71990027718704)) 0.0) 3.5830813497473524) 0.0) -0.0) 0.0) -0.0) 0.0) -0.0) 0.3031417783674049) 0.0) -0.0) -0.0) 2.3697181428393375) -0.0) -0.0) -0.0) -0.0) 0.0) 1.4925526428574571) 0.0) 0.0) 4.011899251352061) 0.0) -0.09424249113767466) -0.0) -0.0) ( *  ( +  sym104 0.09624259173870087) 49.01231290787418)) ( *  ( +  sym105 0.11992263793945312) 9.775974847152867)) -0.0) -0.0) 0.0) 1.893149043165604) -0.0) -0.0) 0.7832387191069793) -0.0) -0.0) 0.0) -0.0) -0.0) -0.0) -0.0) -0.0) 0.0) -0.0) 0.0) 0.038886685368587644) 0.0) 0.0) -0.0)))
(declare-fun y5_8 () Real)
(assert (= y5_8 -41.109016765073996))
(declare-fun y5_9 () Real)
(assert (= y5_9 -5.182766426916698))

; define the repair
(assert (> y1_7  y1_0))
(assert (> y1_7  y1_1))
(assert (> y1_7  y1_2))
(assert (> y1_7  y1_3))
(assert (> y1_7  y1_4))
(assert (> y1_7  y1_5))
(assert (> y1_7  y1_6))
(assert (> y1_7  y1_8))
(assert (> y1_7  y1_9))

(assert (> y2_2  y2_7))
(assert (> y3_1  y3_7))
(assert (> y4_0  y4_7))
(assert (> y5_4  y5_7))

(check-sat)
(get-model)
